\ This file has been generated by DOcplex
\ ENCODING=ISO-8859-1
\Problem name: AMC-3ADMM-H

Minimize
 obj: x_0 + x_1 + x_2 - 20 u_0 + [ 10 u_0^2 ]/2 + 20
Subject To
 cons1: x_0 + 2 x_1 + x_2 + u_0 <= 3
 cons2: x_0 + x_1 + x_2 >= 1
 cons3: x_0 + x_1 = 1

Bounds
 0 <= x_0 <= 1
 0 <= x_1 <= 1
 0 <= x_2 <= 1

Binaries
 x_0 x_1 x_2
End
